p edge 34 136
e 1 15
e 1 19
e 1 29
e 1 30
e 2 3
e 2 12
e 2 23
e 2 33
e 3 5
e 3 7
e 3 16
e 3 19
e 4 16
e 4 17
e 4 24
e 4 32
e 5 2
e 5 4
e 5 12
e 5 19
e 6 5
e 6 7
e 6 26
e 6 33
e 7 8
e 7 23
e 7 24
e 7 26
e 8 1
e 8 7
e 8 23
e 8 27
e 9 4
e 9 23
e 9 26
e 9 31
e 10 11
e 10 15
e 10 17
e 10 23
e 11 10
e 11 12
e 11 15
e 11 19
e 12 2
e 12 13
e 12 13
e 12 33
e 13 8
e 13 11
e 13 12
e 13 26
e 14 2
e 14 27
e 14 30
e 14 33
e 15 1
e 15 2
e 15 26
e 15 30
e 16 4
e 16 18
e 16 22
e 16 32
e 17 3
e 17 9
e 17 23
e 17 32
e 18 9
e 18 22
e 18 30
e 18 31
e 19 2
e 19 5
e 19 8
e 19 10
e 20 17
e 20 22
e 20 23
e 20 25
e 21 1
e 21 7
e 21 23
e 21 32
e 22 8
e 22 16
e 22 18
e 22 27
e 23 9
e 23 11
e 23 17
e 23 27
e 24 3
e 24 14
e 24 14
e 24 22
e 25 13
e 25 19
e 25 27
e 25 30
e 26 1
e 26 6
e 26 8
e 26 16
e 27 18
e 27 19
e 27 20
e 27 31
e 28 1
e 28 5
e 28 10
e 28 20
e 29 20
e 29 24
e 29 28
e 29 31
e 30 9
e 30 14
e 30 21
e 30 31
e 31 1
e 31 7
e 31 19
e 31 22
e 32 1
e 32 2
e 32 9
e 32 11
e 33 5
e 33 15
e 33 28
e 33 31
e 34 2
e 34 4
e 34 19
e 34 24
